%chk=opt.chk
%mem=24GB
%nprocshared=16
#p PBEPBE/Def2TZVP EmpiricalDispersion=GD3BJ
   opt=(tight,maxcyc=200) freq=noraman
   scf=(xqc,maxcyc=300) int=ultrafine
   nosymm pop=(full,nbo) iop(3/124=3)

B1: Ni2 on coronene -- PBE-D3(BJ)/def2-TZVP geometry optimization (high-spin S=2)

0 5
 C       1.42000000     0.00000000     0.00000000
 C       0.71000000     1.22975607     0.00000000
 C      -0.71000000     1.22975607     0.00000000
 C      -1.42000000     0.00000000     0.00000000
 C      -0.71000000    -1.22975607     0.00000000
 C       0.71000000    -1.22975607     0.00000000
 C       2.84000000     0.00000000     0.00000000
 C       1.42000000     2.45951215     0.00000000
 C      -1.42000000     2.45951215     0.00000000
 C      -2.84000000     0.00000000     0.00000000
 C      -1.42000000    -2.45951215     0.00000000
 C       1.42000000    -2.45951215     0.00000000
 C       3.55000000     1.22975607     0.00000000
 C       2.84000000     2.45951215     0.00000000
 C       0.71000000     3.68926822     0.00000000
 C      -0.71000000     3.68926822     0.00000000
 C      -2.84000000     2.45951215     0.00000000
 C      -3.55000000     1.22975607     0.00000000
 C      -3.55000000    -1.22975607     0.00000000
 C      -2.84000000    -2.45951215     0.00000000
 C      -0.71000000    -3.68926822     0.00000000
 C       0.71000000    -3.68926822     0.00000000
 C       2.84000000    -2.45951215     0.00000000
 C       3.55000000    -1.22975607     0.00000000
 H       4.63500000     1.22975607     0.00000000
 H       3.38250000     3.39914971     0.00000000
 H       1.25250000     4.62890578     0.00000000
 H      -1.25250000     4.62890578     0.00000000
 H      -3.38250000     3.39914971     0.00000000
 H      -4.63500000     1.22975607     0.00000000
 H      -4.63500000    -1.22975607     0.00000000
 H      -3.38250000    -3.39914971     0.00000000
 H      -1.25250000    -4.62890578     0.00000000
 H       1.25250000    -4.62890578     0.00000000
 H       3.38250000    -3.39914971     0.00000000
 H       4.63500000    -1.22975607     0.00000000
 Ni      2.13000000     1.22975607     1.95000000
 Ni     -2.13000000    -1.22975607     1.95000000

