38
B1 Ni2-coronene PBE-D3(BJ)/Def2TZVP HS-S2 opt; E=-3937.23331945 Ha
 C       1.42924031    -0.00748264     0.02823884
 C       0.70818144     1.24153737     0.02803895
 C      -0.71862965     1.24472889    -0.02697471
 C      -1.42924039     0.00748259     0.02823911
 C      -0.70818155    -1.24153741     0.02803927
 C       0.71862970    -1.24472887    -0.02697464
 C       2.87344400    -0.01696604     0.00311114
 C       1.42204247     2.49700128     0.00252559
 C      -1.43037261     2.47753183    -0.11952247
 C      -2.87344406     0.01696604     0.00311162
 C      -1.42204255    -2.49700134     0.00252593
 C       1.43037277    -2.47753176    -0.11952240
 C       3.53919385     1.23273526     0.25394576
 C       2.83716140     2.44872530     0.25380206
 C       0.68834830     3.70078833    -0.08786789
 C      -0.69276978     3.69238306    -0.15910225
 C      -2.85131717     2.44617531    -0.15846379
 C      -3.54911399     1.25433361    -0.08677346
 C      -3.53919402    -1.23273526     0.25394612
 C      -2.83716156    -2.44872541     0.25380223
 C      -0.68834819    -3.70078845    -0.08786807
 C       0.69276997    -3.69238305    -0.15910229
 C       2.85131735    -2.44617519    -0.15846363
 C       3.54911402    -1.25433341    -0.08677335
 H       4.62151125     1.23379255     0.39517136
 H       3.37923869     3.38551561     0.39495519
 H       1.23256597     4.64756844    -0.08413234
 H      -1.24098431     4.63367705    -0.23553410
 H      -3.39241163     3.39159450    -0.23470201
 H      -4.64115822     1.25645421    -0.08266621
 H      -4.62151158    -1.23379256     0.39517159
 H      -3.37923899    -3.38551587     0.39495488
 H      -1.23256583    -4.64756868    -0.08413285
 H       1.24098454    -4.63367703    -0.23553430
 H       3.39241183    -3.39159438    -0.23470162
 H       4.64115818    -1.25645388    -0.08266582
 Ni      2.11117059     1.21970454     1.86594902
 Ni     -2.11117054    -1.21970457     1.86594954
